1585987
42,6,66,63,37,20,2,41,11,60,23,47,1,62,15,58,35,49,27,30,21,51,32,56,17,9,13,43,52,36,61,38,50,34,67,7,14,57,8,16,26,44,64,19,3,46,12,53,0,18,48,22,59,4,39,31,55,28,24,29,40,5,10,65,25,54,33,45
